0 0 0 0
0 1 0 0
0 2 0 0
0 3 0 0
0 4 0 4
0 5 0 4
0 6 1 10
0 7 0 9
0 8 0 9
0 9 2 4
0 10 0 9
0 11 0 10
0 12 2 18
0 13 2 24
0 14 0 4
0 15 0 15
0 16 2 15
0 17 1 18
0 18 0 14
0 19 0 24
0 20 0 29
0 21 2 18
0 22 0 27
0 23 0 23
0 24 0 26
0 25 1 15
0 26 0 29
0 27 0 31
0 28 0 33
0 29 0 24
0 30 0 32
0 31 0 39
